c generated by sgen
p cnf 117 244
-2 -3 -4 0
-1 -3 -4 0
-1 -2 -4 0
-1 -2 -3 0
-6 -7 -8 0
-5 -7 -8 0
-5 -6 -8 0
-5 -6 -7 0
-10 -11 -12 0
-9 -11 -12 0
-9 -10 -12 0
-9 -10 -11 0
-14 -15 -16 0
-13 -15 -16 0
-13 -14 -16 0
-13 -14 -15 0
-18 -19 -20 0
-17 -19 -20 0
-17 -18 -20 0
-17 -18 -19 0
-22 -23 -24 0
-21 -23 -24 0
-21 -22 -24 0
-21 -22 -23 0
-26 -27 -28 0
-25 -27 -28 0
-25 -26 -28 0
-25 -26 -27 0
-30 -31 -32 0
-29 -31 -32 0
-29 -30 -32 0
-29 -30 -31 0
-34 -35 -36 0
-33 -35 -36 0
-33 -34 -36 0
-33 -34 -35 0
-38 -39 -40 0
-37 -39 -40 0
-37 -38 -40 0
-37 -38 -39 0
-42 -43 -44 0
-41 -43 -44 0
-41 -42 -44 0
-41 -42 -43 0
-46 -47 -48 0
-45 -47 -48 0
-45 -46 -48 0
-45 -46 -47 0
-50 -51 -52 0
-49 -51 -52 0
-49 -50 -52 0
-49 -50 -51 0
-54 -55 -56 0
-53 -55 -56 0
-53 -54 -56 0
-53 -54 -55 0
-58 -59 -60 0
-57 -59 -60 0
-57 -58 -60 0
-57 -58 -59 0
-62 -63 -64 0
-61 -63 -64 0
-61 -62 -64 0
-61 -62 -63 0
-66 -67 -68 0
-65 -67 -68 0
-65 -66 -68 0
-65 -66 -67 0
-70 -71 -72 0
-69 -71 -72 0
-69 -70 -72 0
-69 -70 -71 0
-74 -75 -76 0
-73 -75 -76 0
-73 -74 -76 0
-73 -74 -75 0
-78 -79 -80 0
-77 -79 -80 0
-77 -78 -80 0
-77 -78 -79 0
-82 -83 -84 0
-81 -83 -84 0
-81 -82 -84 0
-81 -82 -83 0
-86 -87 -88 0
-85 -87 -88 0
-85 -86 -88 0
-85 -86 -87 0
-90 -91 -92 0
-89 -91 -92 0
-89 -90 -92 0
-89 -90 -91 0
-94 -95 -96 0
-93 -95 -96 0
-93 -94 -96 0
-93 -94 -95 0
-98 -99 -100 0
-97 -99 -100 0
-97 -98 -100 0
-97 -98 -99 0
-102 -103 -104 0
-101 -103 -104 0
-101 -102 -104 0
-101 -102 -103 0
-106 -107 -108 0
-105 -107 -108 0
-105 -106 -108 0
-105 -106 -107 0
-110 -111 -112 0
-109 -111 -112 0
-109 -110 -112 0
-109 -110 -111 0
-113 -114 -115 0
-113 -114 -116 0
-113 -114 -117 0
-113 -115 -116 0
-113 -115 -117 0
-113 -116 -117 0
-114 -115 -116 0
-114 -115 -117 0
-114 -116 -117 0
-115 -116 -117 0
15 30 112 0
71 30 112 0
71 15 112 0
71 15 30 0
38 67 58 0
95 67 58 0
95 38 58 0
95 38 67 0
28 39 42 0
31 39 42 0
31 28 42 0
31 28 39 0
109 50 19 0
93 50 19 0
93 109 19 0
93 109 50 0
68 61 23 0
45 61 23 0
45 68 23 0
45 68 61 0
3 26 111 0
77 26 111 0
77 3 111 0
77 3 26 0
80 10 98 0
81 10 98 0
81 80 98 0
81 80 10 0
33 54 94 0
43 54 94 0
43 33 94 0
43 33 54 0
74 7 107 0
14 7 107 0
14 74 107 0
14 74 7 0
90 12 70 0
48 12 70 0
48 90 70 0
48 90 12 0
46 18 13 0
97 18 13 0
97 46 13 0
97 46 18 0
78 16 41 0
101 16 41 0
101 78 41 0
101 78 16 0
110 116 59 0
82 116 59 0
82 110 59 0
82 110 116 0
72 85 53 0
73 85 53 0
73 72 53 0
73 72 85 0
66 106 79 0
88 106 79 0
88 66 79 0
88 66 106 0
75 113 32 0
17 113 32 0
17 75 32 0
17 75 113 0
84 29 108 0
1 29 108 0
1 84 108 0
1 84 29 0
83 11 52 0
44 11 52 0
44 83 52 0
44 83 11 0
49 57 36 0
76 57 36 0
76 49 36 0
76 49 57 0
69 34 5 0
24 34 5 0
24 69 5 0
24 69 34 0
55 89 51 0
22 89 51 0
22 55 51 0
22 55 89 0
92 4 65 0
6 4 65 0
6 92 65 0
6 92 4 0
27 62 117 0
100 62 117 0
100 27 117 0
100 27 62 0
21 40 2 0
20 40 2 0
20 21 2 0
20 21 40 0
105 114 103 0
9 114 103 0
9 105 103 0
9 105 114 0
64 37 87 0
91 37 87 0
91 64 87 0
91 64 37 0
96 102 8 0
99 102 8 0
99 96 8 0
99 96 102 0
63 104 56 0
60 104 56 0
60 63 56 0
60 63 104 0
86 47 115 0
86 47 25 0
86 47 35 0
86 115 25 0
86 115 35 0
86 25 35 0
47 115 25 0
47 115 35 0
47 25 35 0
115 25 35 0
